9838.52 552550
408113 131829
512991 45252
391253 149296
495170 80732.2
482174 87349.3
143070 398346
200488 355933
396775 144978
209026 339705
410301 131517
80721.2 471188
416388 125563
234367 331135
96705.1 445426
108769 442592
425478 122996
226716 334073
164293 395033
156165 395245
396316 147543
117995 434007
381113 163266
347646 213211
141066 403408
337612 219173
238785 308398
390317 154411
306054 255176
367320 184831
323364 221597
466226 95316
15797.6 548533
66917 503660
389870 159928
301872 262151
255400 299108
437984 107483
191484 364192
281982 266932
175441 391475
101353 444647
133395 413362
454786 97698.1
206111 340077
34471.8 532960
378893 167870
431496 120925
451194 98205.7
433769 119870
264075 283807
69157.7 501519
48384.1 519064
350515 197549
50195.9 518716
30436 534571
117995 434007
129197 427314
255356 300574
362358 188078
154411 395578
357744 191642
180147 379980
504365 61561
315369 234198
